# Cost: 860

# Tail Head Net
  4   3 1
  5   4 1
  6   5 1
  7   6 1
  8   7 1
  9   8 1
 10   9 1
 11  10 1
 12  11 1
 13  12 1
 14  13 1
 15  14 1
 16  15 1
 17  16 1
 18  17 1
 19  18 1
 20  19 1
 21  20 1
 22  21 1
 23  22 1
 24  23 1
 25  24 1
 26  25 1
 27  26 1
 28  27 1
 29  28 1
 30  29 1
 31  30 1
 32  31 1
 33  32 1
 34  33 1
 35  34 1
 36  35 1
 37  36 1
 38  37 1
 39  38 1
 40  39 1
 41  40 1
 42  41 1
 43  42 1
 44  43 1
 45  44 1
 46  45 1
 47  46 1
 48  47 1
 49  48 1
 50  49 1
 51  50 1
 52  51 1
 53  52 1
 54  53 1
 55  54 1
 56  55 1
 57  56 1
 58  57 1
 59  58 1
 60  59 1
 61  60 1
 62  61 1
 63  62 1
 64  63 1
 65  64 1
 66  65 1
 67  66 1
 68  67 1
 69  68 1
 70  69 1
150  70 1
230 150 1
310 230 1
390 310 1
470 390 1
550 470 1
630 550 1
710 630 1
790 710 1
870 790 1
950 870 1
1030 950 1
1110 1030 1
1190 1110 1
1270 1190 1
1350 1270 1
1430 1350 1
1510 1430 1
1590 1510 1
1670 1590 1
1750 1670 1
1830 1750 1
1910 1830 1
1990 1910 1
2070 1990 1
2150 2070 1
2230 2150 1
2310 2230 1
2390 2310 1
2470 2390 1
2550 2470 1
2630 2550 1
2710 2630 1
2790 2710 1
2870 2790 1
2950 2870 1
3030 2950 1
3110 3030 1
3190 3110 1
3270 3190 1
3350 3270 1
3430 3350 1
3510 3430 1
3590 3510 1
3670 3590 1
3750 3670 1
3830 3750 1
3910 3830 1
3990 3910 1
4070 3990 1
4150 4070 1
4230 4150 1
4310 4230 1
4390 4310 1
4470 4390 1
4550 4470 1
4630 4550 1
4710 4630 1
4790 4710 1
4870 4790 1
4870 4871 1
4871 4872 1
4872 4873 1
4873 4874 1
4874 4875 1
4875 4876 1
4876 4877 1
4877 4878 1
4878 4879 1
4879 4880 1
4950 4870 1
5030 4950 1
5110 5030 1
5190 5110 1
5270 5190 1
5350 5270 1
5430 5350 1
5510 5430 1
5590 5510 1
5670 5590 1
5750 5670 1
5830 5750 1
5910 5830 1
5990 5910 1
6070 5990 1
6150 6070 1
6230 6150 1
6310 6230 1
6390 6310 1
8880 2480 2
8960 8880 2
9040 8960 2
9120 9040 2
9200 9120 2
9280 9200 2
9360 9280 2
9440 9360 2
9520 9440 2
9600 9520 2
9680 9600 2
9760 9680 2
9840 9760 2
9920 9840 2
10000 9920 2
10080 10000 2
10160 10080 2
10240 10160 2
10320 10240 2
10400 10320 2
10480 10400 2
10560 10480 2
10640 10560 2
10720 10640 2
10800 10720 2
10880 10800 2
10960 10880 2
11040 10960 2
11120 11040 2
11200 11120 2
11280 11200 2
11360 11280 2
11440 11360 2
11520 11440 2
11600 11520 2
11680 11600 2
11760 11680 2
11840 11760 2
11920 11840 2
12000 11920 2
12080 12000 2
12160 12080 2
12240 12160 2
12320 12240 2
12400 12320 2
12480 6080 2
12480 12400 2
12550 12551 2
12551 12552 2
12552 12553 2
12553 12554 2
12554 12555 2
12555 12556 2
12556 12557 2
12557 12558 2
12558 12559 2
12559 12560 2
12560 12480 2
12630 12550 2
6340 6341 2
6341 6342 2
6342 12742 2
12709 12710 2
12710 12630 2
12742 12743 2
12743 12744 2
12744 12745 2
12745 12746 2
12746 12747 2
12747 12748 2
12748 12749 2
12749 12750 2
12750 12751 2
12751 12752 2
12752 12753 2
12753 12754 2
12754 12755 2
12755 12756 2
12756 12757 2
12757 12758 2
12758 12759 2
12759 12760 2
12760 12761 2
12761 12762 2
12762 12763 2
12763 12764 2
12764 12765 2
12765 12766 2
12766 12767 2
12767 12768 2
12768 12769 2
12769 12770 2
12770 12771 2
12771 12772 2
12772 12773 2
12773 12774 2
12774 12775 2
12775 12776 2
12776 12777 2
12777 12778 2
12778 12779 2
12779 12780 2
12780 12781 2
12781 12782 2
12782 12783 2
12783 12784 2
12784 12785 2
12785 12786 2
12786 12787 2
12787 12788 2
12788 12789 2
12789 12709 2
801 721 3
881 801 3
961 881 3
1041 961 3
1121 1041 3
1201 1121 3
1281 1201 3
1282 1281 3
1283 1282 3
1284 1283 3
1285 1284 3
1286 1285 3
1287 1286 3
1288 1287 3
1289 1288 3
1290 1289 3
1291 1290 3
1292 1291 3
1293 1292 3
1294 1293 3
1295 1294 3
1296 1295 3
1297 1296 3
1298 1297 3
1299 1298 3
1300 1299 3
1301 1300 3
1302 1301 3
1303 1302 3
1304 1303 3
1305 1304 3
1306 1305 3
1307 1306 3
1308 1307 3
1309 1308 3
1309 1389 3
1351 7751 3
1352 1351 3
1353 1352 3
1354 1353 3
1355 1354 3
1356 1355 3
1357 1356 3
1358 1357 3
1359 1358 3
1360 1359 3
1389 1469 3
7709 1309 3
7710 7709 3
7711 7710 3
7712 7711 3
7713 7712 3
7714 7713 3
7715 7714 3
7716 7715 3
7717 7716 3
7718 7717 3
7719 7718 3
7720 7719 3
7721 7720 3
7722 7721 3
7723 7722 3
7724 7723 3
7725 7724 3
7726 7725 3
7727 7726 3
7728 7727 3
7729 7728 3
7730 7729 3
7731 7730 3
7732 7731 3
7733 7732 3
7734 7733 3
7735 7734 3
7736 7735 3
7737 7736 3
7738 7737 3
7739 7738 3
7740 7739 3
7741 7740 3
7742 7741 3
7743 7742 3
7744 7743 3
7745 7744 3
7746 7745 3
7747 7746 3
7748 7747 3
7749 7748 3
7750 7749 3
7751 7750 3
1469 1549 3
1549 1629 3
1629 1709 3
1709 1789 3
1789 1869 3
1869 1949 3
1949 2029 3
2029 2109 3
2109 2189 3
2189 2269 3
2269 2349 3
2349 2429 3
2429 2509 3
2509 2589 3
2589 2669 3
2669 2749 3
2749 2829 3
2829 2909 3
2909 2989 3
2989 3069 3
3069 3149 3
3149 3229 3
3229 3309 3
3309 3389 3
3389 3469 3
3469 3549 3
3549 3629 3
3629 3709 3
3709 3789 3
3789 3869 3
3869 3949 3
3949 4029 3
4029 4109 3
4109 4189 3
4189 4269 3
4269 4349 3
4349 4429 3
4429 4509 3
4509 4589 3
4589 4669 3
4669 4749 3
4749 4829 3
4829 4909 3
4909 4989 3
4989 5069 3
5069 5149 3
5149 5229 3
5229 5309 3
5309 5389 3
5389 5469 3
5469 5549 3
5549 5629 3
5629 5709 3
5709 5789 3
5789 5869 3
5869 5949 3
5949 6029 3
6029 6109 3
6109 6189 3
6189 6269 3
6269 6349 3
3921 3841 4
4001 3921 4
4081 4001 4
4161 4081 4
4241 4161 4
4321 4241 4
4401 4321 4
4481 4401 4
4561 4481 4
4641 4561 4
4642 4641 4
11042 4642 4
11122 11042 4
11202 11122 4
11282 11202 4
11362 11282 4
11442 11362 4
11522 11442 4
11602 11522 4
11682 11602 4
11762 11682 4
11842 11762 4
11922 11842 4
11923 11922 4
11924 11923 4
11925 11924 4
11926 11925 4
11927 11926 4
11928 11927 4
11929 11928 4
11930 11929 4
11931 11930 4
11932 11931 4
11933 11932 4
11934 11933 4
11935 11934 4
11936 11935 4
11937 11936 4
11938 11937 4
12018 11938 4
12019 12018 4
12020 12019 4
12021 12020 4
12022 12021 4
12023 12022 4
12024 12023 4
12025 12024 4
12026 12025 4
12027 12026 4
12028 12027 4
12108 12028 4
12109 12108 4
12189 12109 4
12190 12189 4
12270 12190 4
12271 12270 4
12272 12271 4
12273 12272 4
12274 12273 4
12275 12274 4
12276 12275 4
12277 12276 4
12278 12277 4
12279 12278 4
12280 12279 4
12281 12280 4
12282 12281 4
12283 12282 4
12284 12283 4
12285 12284 4
12286 12285 4
12366 12286 4
12446 12366 4
12526 12446 4
12527 12526 4
12528 12527 4
6209 12609 4
6210 6209 4
12608 12528 4
12609 12608 4
6290 6210 4
6370 6290 4
6371 6370 4
4961 4881 5
5041 4961 5
5121 5041 5
5201 5121 5
5281 5201 5
5361 5281 5
5441 5361 5
5521 5441 5
5521 5601 5
5522 5521 5
5523 5522 5
5524 5523 5
5525 5524 5
5526 5525 5
5527 5526 5
5528 5527 5
5529 5528 5
5530 5529 5
5531 5530 5
5532 5531 5
5533 5532 5
5534 5533 5
5535 5534 5
5536 5535 5
5537 5536 5
5538 5537 5
5539 5538 5
11939 5539 5
11940 11939 5
11941 11940 5
11942 11941 5
11943 11942 5
11944 11943 5
11945 11944 5
11946 11945 5
11947 11946 5
11948 11947 5
11949 11948 5
12029 11949 5
12030 12029 5
12110 12030 5
12111 12110 5
12191 12111 5
12192 12191 5
12193 12192 5
12194 12193 5
12195 12194 5
12196 12195 5
12197 12196 5
12198 12197 5
12199 12198 5
12200 12199 5
12201 12200 5
12202 12201 5
12203 12202 5
12204 12203 5
12205 12204 5
12206 12205 5
12207 12206 5
12208 12207 5
12209 12208 5
12210 12209 5
12211 12210 5
12212 12211 5
12213 12212 5
12214 12213 5
12215 12214 5
12216 12215 5
12217 12216 5
12218 12217 5
12219 12218 5
12220 12219 5
12300 12220 5
12301 12300 5
12302 12301 5
12303 12302 5
12383 12303 5
12384 12383 5
12385 12384 5
12386 12385 5
12387 12386 5
12388 12387 5
12389 12388 5
12390 12389 5
12391 12390 5
12392 12391 5
6079 12479 5
12472 12392 5
12473 12472 5
12474 12473 5
12475 12474 5
12476 12475 5
12477 12476 5
12478 12477 5
6159 6079 5
12479 12478 5
6160 6159 5
6240 6160 5
3441 3521 6
3521 3522 6
3522 3602 6
3602 3682 6
3682 3762 6
3762 3842 6
3842 3922 6
3922 3923 6
3923 4003 6
4003 4083 6
4083 4163 6
4163 4243 6
4243 4323 6
4323 4403 6
4403 4483 6
4483 4563 6
4563 4643 6
4643 4723 6
4723 4803 6
4802 4801 6
4803 4802 6
4803 4804 6
4804 4805 6
4805 4806 6
4806 4807 6
4807 4808 6
4808 4809 6
4809 4810 6
4810 4811 6
4811 4812 6
4812 4813 6
4813 4814 6
4814 4815 6
4815 4816 6
4816 4817 6
4817 4818 6
4818 4819 6
4819 4899 6
4899 4979 6
4979 5059 6
5059 5060 6
5060 5061 6
5061 5062 6
5062 5063 6
5063 5064 6
5064 5065 6
5065 5066 6
5066 5146 6
5146 11546 6
11546 11547 6
11547 11548 6
11548 11549 6
11549 11629 6
11629 11709 6
11709 11789 6
11789 11790 6
11790 11791 6
11791 11792 6
11792 11793 6
11793 11794 6
11794 11795 6
11795 11796 6
11796 11797 6
11797 11798 6
11798 11799 6
11799 11800 6
11800 11801 6
11801 11802 6
11802 11803 6
11803 11804 6
11804 11805 6
11805 11806 6
11806 11807 6
11807 11808 6
11808 11809 6
11809 11810 6
11810 11811 6
11811 11812 6
11812 11813 6
11813 11814 6
11814 11815 6
11815 11816 6
11816 11817 6
11817 11818 6
11818 11819 6
11819 11820 6
11820 11821 6
11821 11822 6
11822 11823 6
11823 11824 6
11824 11825 6
11825 11826 6
11826 11827 6
11827 11828 6
11828 11829 6
11829 11830 6
11830 11910 6
11910 11990 6
11990 12070 6
12070 12150 6
12150 12230 6
12230 12231 6
5911 5991 6
12231 12311 6
5991 6071 6
12311 5911 6
6071 6151 6
6151 6231 6
6231 6311 6
6311 6391 6
4640 4560 7
4719 4720 7
4720 4640 7
11119 4719 7
11199 11119 7
4959 11359 7
11279 11199 7
4960 4959 7
11359 11279 7
5040 4960 7
5120 5040 7
5200 5120 7
5280 5200 7
5360 5280 7
5440 5360 7
5520 5440 7
5600 5520 7
5680 5600 7
 82   2 8
162  82 8
242 162 8
322 242 8
402 322 8
482 402 8
562 482 8
642 562 8
722 642 8
802 722 8
882 802 8
962 882 8
1042 962 8
1122 1042 8
7522 1122 8
7602 7522 8
7682 7602 8
1442 7842 8
7762 7682 8
1521 1522 8
1522 1442 8
7842 7762 8
1601 1521 8
1681 1601 8
1761 1681 8
1841 1761 8
1921 1841 8
2001 1921 8
2081 2001 8
2161 2081 8
2241 2161 8
2321 2241 8
2401 2321 8
2481 2401 8
400 480 9
480 560 9
560 640 9
640 720 9
720 800 9
800 880 9
880 960 9
960 1040 9
1040 1120 9
1120 1200 9
1200 1280 9
1271 7671 9
1272 1271 9
1273 1272 9
1274 1273 9
1275 1274 9
1276 1275 9
1277 1276 9
1278 1277 9
1279 1278 9
1280 1279 9
7603 7683 9
7604 7603 9
7605 7604 9
7606 7605 9
7607 7606 9
7608 7607 9
7609 7608 9
7610 7609 9
7611 7610 9
7612 7611 9
7613 7612 9
7614 7613 9
7615 7614 9
7616 7615 9
7617 7616 9
7618 7617 9
7619 7618 9
7620 7619 9
7621 7620 9
7622 7621 9
7623 7622 9
7624 7623 9
7625 7624 9
7626 7625 9
7627 7626 9
7628 7627 9
7629 7628 9
7630 7629 9
7631 7630 9
7632 7631 9
7633 7632 9
7634 7633 9
7635 7634 9
7636 7635 9
7637 7636 9
7638 7637 9
7639 7638 9
7640 7639 9
7641 7640 9
7642 7641 9
7643 7642 9
7644 7643 9
7645 7644 9
7646 7645 9
7647 7646 9
7648 7647 9
7649 7648 9
7650 7649 9
7651 7650 9
7652 7651 9
7653 7652 9
7654 7653 9
7655 7654 9
7656 7655 9
7657 7656 9
7658 7657 9
7659 7658 9
7660 7659 9
7661 7660 9
7662 7661 9
7663 7662 9
7664 7663 9
7665 7664 9
7666 7665 9
7667 7666 9
7668 7667 9
7669 7668 9
7670 7669 9
7671 7670 9
1361 1441 9
1362 1361 9
1363 1362 9
7683 7763 9
7763 1363 9
3121 3201 10
3201 3281 10
3281 3361 10
